
Gurobi 11.0.3 (mac64[x86]) logging started Tue Apr 15 14:47:51 2025

Set parameter LogFile to value "Results/SanityCheck/try_8_big.log"
Set parameter TimeLimit to value 84600
Set parameter Method to value 2
Set parameter Crossover to value 0
Set parameter BarHomogeneous to value 1
Set parameter BarConvTol to value 1e-10
Gurobi Optimizer version 11.0.3 build v11.0.3rc0 (mac64[x86] - Darwin 23.4.0 23E214)

CPU model: Intel(R) Core(TM) i7-1060NG7 CPU @ 1.20GHz
Thread count: 4 physical cores, 8 logical processors, using up to 8 threads

Optimize a model with 1496320 rows, 1917920 columns and 7073808 nonzeros
Model fingerprint: 0x030dafcc
Coefficient statistics:
  Matrix range     [2e-01, 1e+00]
  Objective range  [6e-05, 5e+00]
  Bounds range     [0e+00, 0e+00]
  RHS range        [1e-02, 1e+03]
Presolve removed 1187632 rows and 1266736 columns (presolve time = 5s) ...
Presolve removed 1231712 rows and 1423520 columns
Presolve time: 6.20s
Presolved: 264608 rows, 494496 columns, 1755648 nonzeros

Barrier solved model in 0 iterations and 6.54 seconds
Model is infeasible or unbounded

Gurobi 11.0.3 (mac64[x86]) logging started Tue Apr 15 14:50:28 2025

Set parameter LogFile to value "Results/SanityCheck/try_8_big.log"
Set parameter TimeLimit to value 84600
Set parameter Method to value 2
Set parameter Crossover to value 0
Set parameter BarHomogeneous to value 1
Set parameter BarConvTol to value 1e-10
Gurobi Optimizer version 11.0.3 build v11.0.3rc0 (mac64[x86] - Darwin 23.4.0 23E214)

CPU model: Intel(R) Core(TM) i7-1060NG7 CPU @ 1.20GHz
Thread count: 4 physical cores, 8 logical processors, using up to 8 threads

Optimize a model with 1496320 rows, 1917920 columns and 7073808 nonzeros
Model fingerprint: 0xfb6ed929
Coefficient statistics:
  Matrix range     [2e-01, 1e+00]
  Objective range  [6e-05, 5e+00]
  Bounds range     [0e+00, 0e+00]
  RHS range        [1e-02, 1e+03]
Presolve removed 1188512 rows and 1266592 columns (presolve time = 5s) ...
Presolve removed 1232000 rows and 1423520 columns
Presolve time: 5.90s
Presolved: 264320 rows, 494496 columns, 1755264 nonzeros
Ordering time: 0.01s

Barrier statistics:
 AA' NZ     : 2.492e+04
 Factor NZ  : 9.886e+04 (roughly 7 MB of memory)
 Factor Ops : 2.097e+06 (less than 1 second per iteration)
 Threads    : 4

                  Objective                Residual
Iter       Primal          Dual         Primal    Dual     Compl     Time
   0   5.85366726e+05  7.08182049e+07  4.15e+02 6.31e+03  8.99e+05     6s
   1  -3.78126745e+05  7.98442597e+07  7.61e+01 4.74e+03  2.05e+05     6s
   2  -4.56062663e+05  5.09770020e+07  5.53e+00 6.30e+02  2.93e+04     6s
   3  -4.42273882e+05  1.43005168e+07  6.61e-02 4.29e+01  2.68e+03     6s
   4  -3.28187775e+05  2.22592956e+05  2.29e-03 1.65e+00  9.11e+01     6s
   5  -3.55422232e+04  7.29884995e+04  4.23e-04 3.37e-01  1.44e+01     6s
   6   1.21124710e+04  4.22886947e+04  1.27e-04 7.10e-02  3.19e+00     6s
   7   2.86234628e+04  3.52211520e+04  2.16e-05 2.03e-02  7.53e-01     6s
   8   3.14047383e+04  3.24739397e+04  3.86e-06 2.94e-03  1.13e-01     6s
   9   3.18632804e+04  3.22192587e+04  1.34e-06 9.46e-04  3.46e-02     6s
  10   3.20283405e+04  3.21577434e+04  4.78e-07 3.58e-04  1.15e-02     6s
  11   3.21005841e+04  3.21364976e+04  1.30e-07 8.53e-05  2.89e-03     6s
  12   3.21237651e+04  3.21312790e+04  2.57e-08 2.42e-05  5.72e-04     6s
  13   3.21278047e+04  3.21304651e+04  8.40e-09 1.05e-05  2.02e-04     6s
  14   3.21293514e+04  3.21300382e+04  2.06e-09 3.15e-06  5.27e-05     6s
  15   3.21295192e+04  3.21298763e+04  1.37e-09 5.64e-07  2.53e-05     6s
  16   3.21297332e+04  3.21298465e+04  5.29e-10 8.70e-08  7.84e-06     6s
  17   3.21298191e+04  3.21298410e+04  1.07e-10 2.39e-09  1.49e-06     6s
  18   3.21298232e+04  3.21298405e+04  8.43e-11 1.49e-08  1.17e-06     6s
  19   3.21298233e+04  3.21298405e+04  1.11e-10 3.73e-09  1.16e-06     6s
  20   3.21298262e+04  3.21298405e+04  7.97e-10 1.40e-10  9.68e-07     6s
  21   3.21298404e+04  3.21298405e+04  2.80e-09 8.28e-12  9.39e-10     6s
  22   3.21298405e+04  3.21298405e+04  2.80e-10 8.97e-10  9.40e-13     6s

Barrier solved model in 22 iterations and 6.32 seconds (3.53 work units)
Optimal objective 3.21298405e+04

